(set-info :smt-lib-version 2.6)
(set-logic QF_S)
(set-info :source |
Generated by: Oliver Markgraf, Hongjian Jiang, Daniel Stan, Anthony W. Lin, Philipp Ruemmer
Generated on: 2025-04-08
Application: Using String Solvers to solve RMC problems encoded as CHC over Strings
Target solver: cvc5, OSTRICH, Z3, Z3alpha, Z3-noodler
Time limit: 60.0
Benchmarks are extracted by running HornStr https://arg-git.informatik.uni-kl.de/pub/string-chc-lib on all benchmarks
provided in the repository and gathering the string queries sent to the string solvers.
|)
(set-info :license "https://creativecommons.org/licenses/by/4.0/")
(set-info :category "industrial")
(declare-fun Y () String)
(assert (let ((a!1 (re.union (re.union (re.union (str.to_re "e") (str.to_re "a"))
                               (str.to_re "f"))
                     (str.to_re "b"))))
(let ((a!2 (re.union (re.union (re.union a!1 (str.to_re "c")) (str.to_re "Z"))
                     (str.to_re "d"))))
  (str.in_re Y (re.* a!2)))))
(declare-fun X () String)
(declare-fun reg1 () String)
(declare-fun reg0 () String)
(assert (let ((a!1 (str.in_re reg0 (re.* (re.union (str.to_re "d") (str.to_re "c")))))
      (a!2 (re.union (re.union (re.union (str.to_re "b") (str.to_re "d"))
                               (str.to_re "a"))
                     (str.to_re "c"))))
(let ((a!3 (re.* (re.union (re.union a!2 (str.to_re "e")) (str.to_re "f")))))
  (and true (= X (str.++ reg1)) (= Y (str.++ reg1)) a!1 (str.in_re reg1 a!3)))))
(push 1)
(assert (= X "Z"))
(set-info :status unknown)
(check-sat)
(pop 1)
(push 1)
(assert (= X "Zbb"))
(set-info :status unknown)
(check-sat)
(pop 1)
(push 1)
(assert (= X "Zee"))
(set-info :status unknown)
(check-sat)
(pop 1)
(push 1)
(assert (= X "Zbbee"))
(set-info :status unknown)
(check-sat)
(pop 1)
(push 1)
(assert (= X "Zbbbb"))
(set-info :status unknown)
(check-sat)
(pop 1)
(push 1)
(assert (= X "Zeeee"))
(set-info :status unknown)
(check-sat)
(pop 1)
(exit)
